RAW/CMTT/fspd-long/CMT8T.vrp_seed-5.out
865.5383369	2.135	385.738
