RAW/CMTT/fspd-long/CMT8T.vrp_seed-5.sol
Route #1: 5 84 17 45 46 8 83 60 89
Route #2: 6 96 59 93 85 91 100 37 98 92 97 95 94
Route #3: 58 2 57 15 41 22 75 74 72 73 21 40 53
Route #4: 27 69 70 30 32 90 63 10 62 88 31
Route #5: 12 80 68 24 29 34 78 79 3 77 76 28
Route #6: 54 55 25 39 67 23 56 4 26
Route #7: 99 61 16 86 38 44 14 43 42 87 13
Route #8: 50 33 81 9 35 71 65 66 20 51 1
Route #9: 18 82 48 47 36 49 64 11 19 7 52
Cost 865.538337